# Objective value = 4.8675299999999988e+03
I_0_0 1547
I_0_1 2228
I_0_2 1.8990000000000007e+03
I_0_3 2.3070000000000009e+03
I_1_0 34
I_1_1 -1.7408297026122455e-13
I_1_2 3.4000000000000014e+01
I_1_3 0
I_2_0 52
I_2_1 0
I_2_2 5.2000000000000007e+01
I_2_3 0
I_3_0 58
I_3_1 -2.9487523534044158e-13
I_3_2 5.8000000000000021e+01
I_3_3 0
I_4_0 88
I_4_1 4.4000000000000853e+01
I_4_2 44
I_4_3 0
I_5_0 71
I_5_1 1.4166445794216997e-13
I_5_2 71
I_5_3 0
I_6_0 13
I_6_1 5.6898930012039273e-16
I_6_2 13
I_6_3 8.8817841970012523e-16
I_7_0 56
I_7_1 28
I_7_2 0
I_7_3 0
I_8_0 86
I_8_1 0
I_8_2 -3.5527136788005009e-15
I_8_3 0
I_9_0 72
I_9_1 0
I_9_2 72
I_9_3 0
I_10_0 106
I_10_1 53
I_10_2 -1.6331380692236053e-13
I_10_3 106
I_11_0 60
I_11_1 30
I_11_2 2.9999999999999986e+01
I_11_3 0
I_12_0 28
I_12_1 14
I_12_2 1.3999999999999996e+01
I_12_3 0
I_13_0 55
I_13_1 0
I_13_2 55
I_13_3 0
I_14_0 32
I_14_1 1.6000000000000227e+01
I_14_2 1.6000000000000043e+01
I_14_3 0
I_15_0 55
I_15_1 0
I_15_2 5.4999999999999972e+01
I_15_3 4.2632564145606011e-14
q_1_0 -1.7408297026122455e-13
q_1_1 6.8000000000000185e+01
q_1_2 -1.4210854715202004e-14
q_2_0 0
q_2_1 104
q_2_2 -7.1054273576010019e-15
q_3_0 -2.9487523534044158e-13
q_3_1 1.1600000000000031e+02
q_3_2 -2.1316282072803006e-14
q_4_0 8.5620399659092072e-13
q_4_1 4.3999999999999147e+01
q_4_2 0
q_5_0 1.4166445794216997e-13
q_5_1 1.4199999999999986e+02
q_5_2 0
q_6_0 5.6898930012039273e-16
q_6_1 26
q_6_2 8.8817841970012523e-16
q_7_0 0
q_7_1 0
q_7_2 28
q_8_0 0
q_8_1 86
q_8_2 86
q_9_0 0
q_9_1 144
q_9_2 0
q_10_0 1.1102230246251565e-16
q_10_1 -1.6342482922482304e-13
q_10_2 1.5900000000000017e+02
q_11_0 0
q_11_1 2.9999999999999986e+01
q_11_2 7.1054273576010019e-15
q_12_0 0
q_12_1 1.3999999999999996e+01
q_12_2 6.2172489379008766e-15
q_13_0 0
q_13_1 110
q_13_2 0
q_14_0 2.2737367544323206e-13
q_14_1 1.5999999999999815e+01
q_14_2 1.6764367671839864e-14
q_15_0 0
q_15_1 1.0999999999999997e+02
q_15_2 7.1054273576010019e-14
y_0_0 0
y_0_1 1
y_0_2 1
y_1_0 -5.1347814888913490e-15
y_1_1 1
y_1_2 -4.7184478546569153e-16
y_2_0 0
y_2_1 1
y_2_2 0
y_3_0 -5.1347814888913490e-15
y_3_1 1.0000000000000020e+00
y_3_2 -4.7184478546569153e-16
y_4_0 -5.1625370645069779e-15
y_4_1 1
y_4_2 0
y_5_0 1.9984014443252818e-15
y_5_1 1
y_5_2 9.9920072216264089e-16
y_6_0 -4.3368086899420177e-18
y_6_1 9.9999999999999689e-01
y_6_2 0
y_7_0 0
y_7_1 0
y_7_2 1
y_8_0 0
y_8_1 1
y_8_2 1
y_9_0 0
y_9_1 1
y_9_2 0
y_10_0 0
y_10_1 -2.3869795029440866e-15
y_10_2 1.0000000000000009e+00
y_11_0 0
y_11_1 1.0000000000000056e+00
y_11_2 0
y_12_0 0
y_12_1 1
y_12_2 4.9960036108132044e-16
y_13_0 0
y_13_1 9.9999999999999967e-01
y_13_2 0
y_14_0 1.4210854715202004e-14
y_14_1 9.9999999999998890e-01
y_14_2 -3.6465033528590226e-15
y_15_0 0
y_15_1 1.0000000000000018e+00
y_15_2 6.1062266354383610e-16
x_0_1_0 0
x_0_1_1 0
x_0_1_2 0
x_0_2_0 0
x_0_2_1 0
x_0_2_2 0
x_0_3_0 0
x_0_3_1 0
x_0_3_2 0
x_0_4_0 0
x_0_4_1 0
x_0_4_2 0
x_0_5_0 0
x_0_5_1 0
x_0_5_2 0
x_0_6_0 0
x_0_6_1 0
x_0_6_2 0
x_0_7_0 0
x_0_7_1 0
x_0_7_2 -1.4432899320127035e-14
x_0_8_0 0
x_0_8_1 1.0000000000000018e+00
x_0_8_2 1.0000000000000246e+00
x_0_9_0 0
x_0_9_1 1.0000000000000004e+00
x_0_9_2 -6.1062266354383610e-16
x_0_10_0 0
x_0_10_1 -2.3869795029440866e-15
x_0_10_2 9.9999999999999045e-01
x_0_11_0 0
x_0_11_1 0
x_0_11_2 0
x_0_12_0 0
x_0_12_1 0
x_0_12_2 0
x_0_13_0 0
x_0_13_1 0
x_0_13_2 0
x_0_14_0 0
x_0_14_1 0
x_0_14_2 0
x_0_15_0 0
x_0_15_1 0
x_0_15_2 0
x_1_2_0 0
x_1_2_1 0
x_1_2_2 0
x_1_3_0 -1.0269562977782698e-14
x_1_3_1 1
x_1_3_2 -4.7184478546569153e-16
x_1_4_0 0
x_1_4_1 0
x_1_4_2 0
x_1_5_0 0
x_1_5_1 0
x_1_5_2 0
x_1_6_0 0
x_1_6_1 0
x_1_6_2 0
x_1_7_0 0
x_1_7_1 0
x_1_7_2 0
x_1_8_0 0
x_1_8_1 0
x_1_8_2 0
x_1_9_0 0
x_1_9_1 -6.1062266354383610e-15
x_1_9_2 0
x_1_10_0 0
x_1_10_1 0
x_1_10_2 0
x_1_11_0 0
x_1_11_1 0
x_1_11_2 0
x_1_12_0 0
x_1_12_1 0
x_1_12_2 0
x_1_13_0 0
x_1_13_1 0
x_1_13_2 0
x_1_14_0 0
x_1_14_1 0
x_1_14_2 0
x_1_15_0 0
x_1_15_1 1.0000000000000033e+00
x_1_15_2 -4.7184478546569153e-16
x_2_3_0 0
x_2_3_1 0
x_2_3_2 0
x_2_4_0 0
x_2_4_1 0
x_2_4_2 0
x_2_5_0 0
x_2_5_1 9.9999999999999734e-01
x_2_5_2 0
x_2_6_0 0
x_2_6_1 0
x_2_6_2 0
x_2_7_0 0
x_2_7_1 0
x_2_7_2 0
x_2_8_0 0
x_2_8_1 0
x_2_8_2 0
x_2_9_0 0
x_2_9_1 0
x_2_9_2 0
x_2_10_0 0
x_2_10_1 0
x_2_10_2 0
x_2_11_0 0
x_2_11_1 1.0000000000000058e+00
x_2_11_2 0
x_2_12_0 0
x_2_12_1 0
x_2_12_2 0
x_2_13_0 0
x_2_13_1 -2.9698465908722937e-15
x_2_13_2 0
x_2_14_0 0
x_2_14_1 0
x_2_14_2 0
x_2_15_0 0
x_2_15_1 0
x_2_15_2 0
x_3_4_0 0
x_3_4_1 0
x_3_4_2 0
x_3_5_0 0
x_3_5_1 0
x_3_5_2 0
x_3_6_0 0
x_3_6_1 1
x_3_6_2 0
x_3_7_0 0
x_3_7_1 0
x_3_7_2 0
x_3_8_0 0
x_3_8_1 0
x_3_8_2 0
x_3_9_0 0
x_3_9_1 0
x_3_9_2 0
x_3_10_0 0
x_3_10_1 0
x_3_10_2 0
x_3_11_0 0
x_3_11_1 0
x_3_11_2 0
x_3_12_0 0
x_3_12_1 0
x_3_12_2 0
x_3_13_0 0
x_3_13_1 0
x_3_13_2 0
x_3_14_0 0
x_3_14_1 0
x_3_14_2 0
x_3_15_0 0
x_3_15_1 0
x_3_15_2 -5.2180482157382357e-15
x_4_5_0 -1.3322676295501878e-14
x_4_5_1 5.3290705182007514e-15
x_4_5_2 0
x_4_6_0 0
x_4_6_1 1
x_4_6_2 0
x_4_7_0 0
x_4_7_1 0
x_4_7_2 0
x_4_8_0 0
x_4_8_1 0
x_4_8_2 0
x_4_9_0 0
x_4_9_1 0
x_4_9_2 0
x_4_10_0 0
x_4_10_1 0
x_4_10_2 0
x_4_11_0 0
x_4_11_1 0
x_4_11_2 0
x_4_12_0 0
x_4_12_1 0
x_4_12_2 0
x_4_13_0 0
x_4_13_1 0
x_4_13_2 0
x_4_14_0 0
x_4_14_1 9.9999999999999423e-01
x_4_14_2 0
x_4_15_0 0
x_4_15_1 0
x_4_15_2 0
x_5_6_0 0
x_5_6_1 0
x_5_6_2 0
x_5_7_0 0
x_5_7_1 0
x_5_7_2 0
x_5_8_0 0
x_5_8_1 0
x_5_8_2 0
x_5_9_0 0
x_5_9_1 0
x_5_9_2 0
x_5_10_0 0
x_5_10_1 0
x_5_10_2 0
x_5_11_0 0
x_5_11_1 0
x_5_11_2 0
x_5_12_0 0
x_5_12_1 0
x_5_12_2 0
x_5_13_0 0
x_5_13_1 0
x_5_13_2 0
x_5_14_0 1.6875389974302379e-14
x_5_14_1 9.9999999999999023e-01
x_5_14_2 1.9984014443252818e-15
x_5_15_0 0
x_5_15_1 0
x_5_15_2 0
x_6_7_0 0
x_6_7_1 0
x_6_7_2 0
x_6_8_0 0
x_6_8_1 0
x_6_8_2 0
x_6_9_0 0
x_6_9_1 0
x_6_9_2 0
x_6_10_0 0
x_6_10_1 0
x_6_10_2 0
x_6_11_0 0
x_6_11_1 0
x_6_11_2 0
x_6_12_0 0
x_6_12_1 0
x_6_12_2 0
x_6_13_0 0
x_6_13_1 0
x_6_13_2 0
x_6_14_0 0
x_6_14_1 -9.1038288019262836e-15
x_6_14_2 0
x_6_15_0 0
x_6_15_1 0
x_6_15_2 0
x_7_8_0 0
x_7_8_1 0
x_7_8_2 1.0000000000000033e+00
x_7_9_0 0
x_7_9_1 0
x_7_9_2 0
x_7_10_0 0
x_7_10_1 0
x_7_10_2 1.0000000000000016e+00
x_7_11_0 0
x_7_11_1 0
x_7_11_2 0
x_7_12_0 0
x_7_12_1 0
x_7_12_2 0
x_7_13_0 0
x_7_13_1 0
x_7_13_2 0
x_7_14_0 0
x_7_14_1 0
x_7_14_2 0
x_7_15_0 0
x_7_15_1 0
x_7_15_2 0
x_8_9_0 0
x_8_9_1 0
x_8_9_2 0
x_8_10_0 0
x_8_10_1 -2.3869795029440866e-15
x_8_10_2 0
x_8_11_0 0
x_8_11_1 0
x_8_11_2 -7.9936057773011271e-15
x_8_12_0 0
x_8_12_1 9.9999999999999956e-01
x_8_12_2 4.9960036108132044e-16
x_8_13_0 0
x_8_13_1 0
x_8_13_2 0
x_8_14_0 0
x_8_14_1 0
x_8_14_2 0
x_8_15_0 0
x_8_15_1 0
x_8_15_2 0
x_9_10_0 0
x_9_10_1 0
x_9_10_2 0
x_9_11_0 0
x_9_11_1 0
x_9_11_2 0
x_9_12_0 0
x_9_12_1 0
x_9_12_2 0
x_9_13_0 0
x_9_13_1 0
x_9_13_2 0
x_9_14_0 0
x_9_14_1 0
x_9_14_2 0
x_9_15_0 0
x_9_15_1 1
x_9_15_2 6.1062266354383610e-16
x_10_11_0 0
x_10_11_1 0
x_10_11_2 0
x_10_12_0 0
x_10_12_1 0
x_10_12_2 0
x_10_13_0 0
x_10_13_1 0
x_10_13_2 0
x_10_14_0 0
x_10_14_1 0
x_10_14_2 0
x_10_15_0 0
x_10_15_1 0
x_10_15_2 0
x_11_12_0 0
x_11_12_1 0
x_11_12_2 0
x_11_13_0 0
x_11_13_1 1.0000000000000053e+00
x_11_13_2 -4.9960036108132044e-16
x_11_14_0 0
x_11_14_1 0
x_11_14_2 0
x_11_15_0 0
x_11_15_1 0
x_11_15_2 0
x_12_13_0 0
x_12_13_1 9.9999999999999956e-01
x_12_13_2 4.9960036108132044e-16
x_12_14_0 0
x_12_14_1 0
x_12_14_2 0
x_12_15_0 0
x_12_15_1 0
x_12_15_2 0
x_13_14_0 0
x_13_14_1 0
x_13_14_2 0
x_13_15_0 0
x_13_15_1 0
x_13_15_2 0
x_14_15_0 0
x_14_15_1 0
x_14_15_2 0
